940883
24 22 45980
22 4 23621
4 19 26533
19 40 13572
40 18 18404
18 27 12606
27 2 15288
2 21 11546
21 1 6578
1 10 6947
10 35 6355
35 11 5412
11 8 17581
8 15 26227
15 16 36816
16 17 43849
17 3 50824
3 14 30026
14 9 137648
9 6 47658
6 7 28722
7 36 11794
36 34 46280
34 39 31546
39 25 4093
25 23 11530
23 38 7449
38 29 745
29 13 18948
13 28 6411
28 31 12751
31 30 10287
30 37 941
37 20 17449
20 26 24941
26 33 15458
33 12 3967
12 32 37145
32 5 3290
5 24 63665
